47
1000
200	1
199	3
198	4
197	2
196	3
195	4
194	6
193	3
192	2
191	1
190	3
189	2
188	2
187	1
186	2
185	2
183	3
182	2
180	3
179	3
178	2
177	4
176	2
175	1
174	3
173	2
172	3
171	3
170	4
169	2
168	2
167	1
166	4
165	3
163	3
162	2
161	1
160	2
158	2
157	2
156	3
155	4
154	2
153	4
152	3
151	1
150	3
